PROBLEM NAME: eil51_n7
KNAPSACK DATA TYPE: uncorrelated
DIMENSION: 7
NUMBER OF ITEMS: 60
CAPACITY OF KNAPSACK: 2635
MIN SPEED: 0.1
MAX SPEED: 1
RENTING RATIO: 15.08
EDGE_WEIGHT_TYPE: CEIL_2D
NODE_COORD_SECTION	(INDEX, X, Y):
1	42	57
2	7	38
3	30	48
4	45	35
5	5	6
6	56	37
7	30	40
ITEMS SECTION	(INDEX, PROFIT, WEIGHT, ASSIGNED NODE NUMBER):
1	997	199	3
2	994	367	3
3	992	421	3
4	943	895	3
5	931	70	3
6	908	97	3
7	893	984	3
8	874	138	3
9	824	724	3
10	815	845	3
11	794	995	7
12	791	9	7
13	789	674	7
14	772	645	7
15	766	882	7
16	764	487	7
17	726	98	7
18	724	29	7
19	720	856	7
20	711	988	7
21	707	242	2
22	700	72	2
23	667	122	2
24	649	322	2
25	641	46	2
26	633	299	2
27	617	874	2
28	598	94	2
29	569	107	2
30	544	574	2
31	539	719	5
32	537	122	5
33	536	923	5
34	513	267	5
35	506	326	5
36	494	553	5
37	487	600	5
38	479	540	5
39	457	43	5
40	446	955	5
41	428	682	4
42	422	252	4
43	419	145	4
44	416	248	4
45	359	901	4
46	339	467	4
47	334	715	4
48	303	748	4
49	237	795	4
50	208	730	4
51	196	710	6
52	196	529	6
53	142	554	6
54	131	433	6
55	116	277	6
56	94	485	6
57	81	972	6
58	66	191	6
59	58	213	6
60	7	738	6
